c "208261.clq"
p edge 100 1344
e 1 17
e 1 18
e 1 19
e 1 21
e 1 23
e 1 26
e 1 28
e 1 29
e 1 33
e 1 41
e 1 44
e 1 55
e 1 57
e 1 70
e 1 72
e 1 88
e 2 17
e 2 18
e 2 19
e 2 21
e 2 22
e 2 23
e 2 24
e 2 25
e 2 27
e 2 32
e 2 35
e 2 44
e 2 46
e 2 50
e 2 58
e 2 61
e 2 68
e 2 75
e 2 83
e 2 88
e 2 90
e 2 95
e 2 97
e 2 100
e 3 17
e 3 18
e 3 19
e 3 20
e 3 21
e 3 22
e 3 23
e 3 25
e 3 26
e 3 27
e 3 29
e 3 32
e 3 35
e 3 36
e 3 40
e 3 43
e 3 47
e 3 48
e 3 49
e 3 56
e 3 58
e 3 60
e 3 62
e 3 64
e 3 67
e 3 71
e 3 72
e 3 74
e 3 79
e 3 89
e 3 91
e 3 96
e 3 98
e 3 100
e 4 17
e 4 18
e 4 19
e 4 20
e 4 21
e 4 22
e 4 23
e 4 25
e 4 26
e 4 27
e 4 28
e 4 29
e 4 30
e 4 31
e 4 33
e 4 39
e 4 41
e 4 43
e 4 44
e 4 49
e 4 51
e 4 54
e 4 55
e 4 57
e 4 59
e 4 65
e 4 69
e 4 71
e 4 72
e 4 73
e 4 76
e 4 82
e 4 88
e 4 92
e 4 93
e 4 94
e 4 95
e 4 96
e 5 17
e 5 18
e 5 19
e 5 20
e 5 21
e 5 23
e 5 24
e 5 27
e 5 28
e 5 29
e 5 31
e 5 34
e 5 35
e 5 37
e 5 39
e 5 64
e 5 86
e 5 89
e 5 99
e 6 17
e 6 18
e 6 19
e 6 20
e 6 21
e 6 22
e 6 23
e 6 25
e 6 26
e 6 29
e 6 33
e 6 34
e 6 36
e 6 39
e 6 42
e 6 43
e 6 44
e 6 45
e 6 48
e 6 52
e 6 55
e 6 56
e 6 59
e 6 61
e 6 64
e 6 69
e 6 80
e 6 81
e 6 86
e 6 87
e 6 88
e 6 90
e 6 91
e 6 98
e 7 17
e 7 18
e 7 19
e 7 20
e 7 22
e 7 23
e 7 24
e 7 25
e 7 26
e 7 28
e 7 30
e 7 31
e 7 32
e 7 33
e 7 34
e 7 38
e 7 40
e 7 42
e 7 44
e 7 50
e 7 51
e 7 55
e 7 66
e 7 67
e 7 69
e 7 73
e 7 75
e 7 76
e 7 84
e 7 86
e 7 87
e 7 90
e 7 99
e 8 17
e 8 18
e 8 20
e 8 24
e 8 27
e 8 37
e 8 40
e 8 42
e 8 50
e 8 51
e 8 53
e 8 66
e 8 68
e 8 79
e 8 88
e 9 17
e 9 18
e 9 19
e 9 20
e 9 21
e 9 22
e 9 24
e 9 27
e 9 28
e 9 32
e 9 39
e 9 41
e 9 44
e 9 49
e 9 54
e 9 69
e 9 84
e 9 92
e 9 98
e 10 17
e 10 18
e 10 19
e 10 20
e 10 21
e 10 22
e 10 23
e 10 24
e 10 27
e 10 29
e 10 30
e 10 35
e 10 36
e 10 37
e 10 39
e 10 45
e 10 46
e 10 47
e 10 50
e 10 51
e 10 56
e 10 61
e 10 72
e 10 83
e 10 91
e 10 94
e 10 99
e 11 17
e 11 19
e 11 20
e 11 21
e 11 24
e 11 31
e 11 34
e 11 36
e 11 38
e 11 40
e 11 43
e 11 44
e 11 45
e 11 49
e 11 53
e 11 56
e 11 58
e 11 64
e 11 69
e 11 71
e 11 77
e 11 98
e 12 17
e 12 18
e 12 19
e 12 20
e 12 22
e 12 23
e 12 24
e 12 25
e 12 26
e 12 27
e 12 30
e 12 31
e 12 33
e 12 35
e 12 36
e 12 45
e 12 46
e 12 47
e 12 60
e 12 62
e 12 64
e 12 65
e 12 76
e 12 82
e 12 98
e 13 17
e 13 18
e 13 19
e 13 21
e 13 22
e 13 24
e 13 28
e 13 29
e 13 30
e 13 32
e 13 36
e 13 38
e 13 43
e 13 54
e 13 57
e 13 59
e 13 61
e 13 73
e 13 80
e 13 86
e 13 87
e 13 91
e 13 95
e 13 96
e 14 17
e 14 18
e 14 19
e 14 20
e 14 21
e 14 22
e 14 23
e 14 25
e 14 26
e 14 29
e 14 32
e 14 33
e 14 34
e 14 35
e 14 42
e 14 44
e 14 48
e 14 55
e 14 56
e 14 58
e 14 62
e 14 70
e 14 72
e 14 74
e 14 78
e 14 79
e 14 97
e 15 17
e 15 18
e 15 19
e 15 20
e 15 24
e 15 25
e 15 26
e 15 29
e 15 30
e 15 35
e 15 36
e 15 38
e 15 40
e 15 41
e 15 53
e 15 55
e 15 56
e 15 59
e 15 60
e 15 65
e 15 68
e 15 72
e 15 79
e 15 81
e 15 93
e 15 95
e 15 100
e 16 17
e 16 18
e 16 20
e 16 21
e 16 22
e 16 27
e 16 31
e 16 36
e 16 45
e 16 47
e 16 50
e 16 51
e 16 54
e 16 57
e 16 62
e 16 69
e 16 76
e 16 78
e 16 82
e 16 90
e 17 18
e 17 19
e 17 20
e 17 21
e 17 22
e 17 23
e 17 24
e 17 25
e 17 26
e 17 27
e 17 28
e 17 29
e 17 30
e 17 32
e 17 33
e 17 34
e 17 36
e 17 37
e 17 38
e 17 39
e 17 40
e 17 44
e 17 45
e 17 46
e 17 47
e 17 48
e 17 49
e 17 50
e 17 52
e 17 55
e 17 56
e 17 60
e 17 61
e 17 62
e 17 64
e 17 65
e 17 66
e 17 67
e 17 69
e 17 74
e 17 77
e 17 80
e 17 81
e 17 83
e 17 84
e 17 85
e 17 87
e 17 89
e 17 95
e 17 99
e 18 19
e 18 20
e 18 21
e 18 22
e 18 23
e 18 24
e 18 25
e 18 27
e 18 28
e 18 33
e 18 34
e 18 36
e 18 37
e 18 38
e 18 41
e 18 42
e 18 46
e 18 48
e 18 49
e 18 51
e 18 52
e 18 55
e 18 57
e 18 63
e 18 67
e 18 72
e 18 79
e 18 81
e 18 82
e 18 83
e 18 85
e 18 86
e 18 91
e 18 93
e 18 96
e 18 97
e 18 99
e 19 20
e 19 21
e 19 22
e 19 23
e 19 24
e 19 25
e 19 26
e 19 27
e 19 28
e 19 30
e 19 31
e 19 32
e 19 33
e 19 36
e 19 37
e 19 38
e 19 39
e 19 40
e 19 41
e 19 42
e 19 43
e 19 44
e 19 46
e 19 48
e 19 52
e 19 57
e 19 58
e 19 60
e 19 61
e 19 62
e 19 63
e 19 65
e 19 66
e 19 67
e 19 68
e 19 69
e 19 72
e 19 73
e 19 82
e 19 85
e 19 86
e 19 87
e 19 90
e 19 92
e 19 94
e 20 21
e 20 22
e 20 23
e 20 24
e 20 25
e 20 26
e 20 28
e 20 29
e 20 30
e 20 31
e 20 34
e 20 35
e 20 38
e 20 40
e 20 41
e 20 42
e 20 43
e 20 48
e 20 49
e 20 50
e 20 52
e 20 53
e 20 56
e 20 59
e 20 61
e 20 63
e 20 64
e 20 65
e 20 66
e 20 69
e 20 72
e 20 74
e 20 80
e 20 84
e 20 85
e 20 91
e 20 93
e 20 94
e 20 97
e 21 22
e 21 23
e 21 24
e 21 25
e 21 26
e 21 28
e 21 29
e 21 30
e 21 31
e 21 33
e 21 34
e 21 35
e 21 37
e 21 38
e 21 39
e 21 41
e 21 42
e 21 44
e 21 45
e 21 46
e 21 52
e 21 53
e 21 54
e 21 56
e 21 60
e 21 61
e 21 65
e 21 67
e 21 69
e 21 75
e 21 77
e 21 85
e 21 88
e 21 89
e 21 94
e 21 95
e 22 23
e 22 24
e 22 25
e 22 26
e 22 27
e 22 29
e 22 31
e 22 33
e 22 35
e 22 37
e 22 38
e 22 40
e 22 41
e 22 42
e 22 43
e 22 45
e 22 47
e 22 51
e 22 52
e 22 54
e 22 55
e 22 57
e 22 58
e 22 59
e 22 60
e 22 62
e 22 68
e 22 75
e 22 77
e 22 78
e 22 79
e 22 80
e 22 83
e 22 86
e 22 89
e 22 96
e 22 97
e 23 25
e 23 26
e 23 27
e 23 28
e 23 29
e 23 30
e 23 31
e 23 32
e 23 33
e 23 34
e 23 36
e 23 37
e 23 38
e 23 39
e 23 40
e 23 41
e 23 42
e 23 43
e 23 44
e 23 45
e 23 47
e 23 48
e 23 50
e 23 54
e 23 63
e 23 65
e 23 71
e 23 72
e 23 74
e 23 76
e 23 79
e 23 81
e 23 83
e 23 91
e 23 95
e 23 98
e 23 99
e 24 25
e 24 26
e 24 28
e 24 29
e 24 30
e 24 31
e 24 32
e 24 33
e 24 35
e 24 36
e 24 37
e 24 39
e 24 40
e 24 41
e 24 43
e 24 44
e 24 45
e 24 46
e 24 48
e 24 58
e 24 65
e 24 66
e 24 68
e 24 70
e 24 72
e 24 73
e 24 83
e 24 86
e 24 87
e 24 88
e 24 90
e 24 91
e 24 94
e 24 100
e 25 26
e 25 27
e 25 28
e 25 30
e 25 31
e 25 32
e 25 33
e 25 34
e 25 37
e 25 38
e 25 40
e 25 42
e 25 45
e 25 46
e 25 49
e 25 52
e 25 53
e 25 57
e 25 64
e 25 66
e 25 67
e 25 69
e 25 70
e 25 74
e 25 77
e 25 82
e 25 84
e 25 93
e 26 27
e 26 28
e 26 30
e 26 31
e 26 32
e 26 33
e 26 34
e 26 35
e 26 39
e 26 40
e 26 42
e 26 45
e 26 49
e 26 50
e 26 51
e 26 55
e 26 56
e 26 58
e 26 61
e 26 64
e 26 67
e 26 83
e 26 88
e 26 90
e 26 94
e 26 95
e 26 96
e 27 28
e 27 32
e 27 38
e 27 39
e 27 40
e 27 43
e 27 44
e 27 48
e 27 53
e 27 57
e 27 58
e 27 61
e 27 65
e 27 69
e 27 70
e 27 75
e 27 77
e 27 78
e 27 91
e 27 93
e 27 95
e 27 99
e 28 29
e 28 30
e 28 32
e 28 33
e 28 34
e 28 36
e 28 37
e 28 38
e 28 43
e 28 47
e 28 48
e 28 51
e 28 53
e 28 54
e 28 55
e 28 56
e 28 61
e 28 62
e 28 63
e 28 64
e 28 74
e 28 76
e 28 77
e 28 78
e 28 84
e 28 85
e 28 93
e 29 30
e 29 31
e 29 32
e 29 35
e 29 36
e 29 42
e 29 45
e 29 46
e 29 54
e 29 59
e 29 60
e 29 62
e 29 63
e 29 64
e 29 66
e 29 67
e 29 74
e 29 82
e 29 83
e 29 89
e 29 98
e 30 31
e 30 39
e 30 41
e 30 45
e 30 47
e 30 48
e 30 49
e 30 53
e 30 64
e 30 69
e 30 73
e 30 92
e 31 32
e 31 34
e 31 35
e 31 40
e 31 43
e 31 46
e 31 49
e 31 50
e 31 51
e 31 55
e 31 57
e 31 58
e 31 60
e 31 63
e 31 68
e 31 71
e 31 73
e 31 75
e 31 79
e 31 80
e 31 81
e 31 83
e 31 85
e 31 86
e 31 87
e 31 92
e 31 95
e 31 96
e 31 97
e 32 34
e 32 35
e 32 37
e 32 39
e 32 41
e 32 45
e 32 46
e 32 47
e 32 49
e 32 53
e 32 54
e 32 58
e 32 61
e 32 63
e 32 66
e 32 70
e 32 74
e 32 79
e 32 80
e 32 91
e 33 34
e 33 37
e 33 43
e 33 46
e 33 47
e 33 50
e 33 53
e 33 55
e 33 56
e 33 57
e 33 60
e 33 62
e 33 63
e 33 69
e 33 71
e 33 76
e 33 79
e 33 81
e 33 84
e 33 88
e 33 96
e 33 100
e 34 35
e 34 36
e 34 37
e 34 38
e 34 41
e 34 42
e 34 46
e 34 48
e 34 49
e 34 52
e 34 53
e 34 54
e 34 58
e 34 60
e 34 63
e 34 68
e 34 75
e 34 76
e 34 83
e 34 86
e 34 88
e 34 96
e 34 100
e 35 39
e 35 50
e 35 53
e 35 54
e 35 57
e 35 67
e 35 70
e 35 82
e 35 88
e 35 96
e 35 100
e 36 37
e 36 40
e 36 41
e 36 46
e 36 48
e 36 50
e 36 63
e 36 65
e 36 72
e 36 75
e 36 78
e 36 97
e 36 99
e 37 38
e 37 43
e 37 44
e 37 47
e 37 49
e 37 50
e 37 54
e 37 56
e 37 58
e 37 59
e 37 60
e 37 65
e 37 66
e 37 68
e 37 71
e 37 77
e 37 78
e 37 80
e 37 81
e 37 83
e 37 88
e 37 91
e 37 96
e 37 97
e 37 98
e 38 39
e 38 42
e 38 44
e 38 47
e 38 48
e 38 51
e 38 52
e 38 59
e 38 61
e 38 62
e 38 81
e 38 82
e 39 41
e 39 46
e 39 51
e 39 52
e 39 53
e 39 55
e 39 58
e 39 60
e 39 64
e 39 67
e 39 73
e 39 78
e 39 79
e 39 81
e 39 85
e 40 42
e 40 54
e 40 59
e 40 62
e 40 63
e 40 64
e 40 67
e 40 68
e 40 70
e 40 71
e 40 75
e 40 85
e 40 88
e 40 89
e 40 95
e 40 99
e 40 100
e 41 43
e 41 51
e 41 57
e 41 59
e 41 66
e 41 67
e 41 70
e 41 75
e 41 79
e 41 85
e 41 87
e 41 89
e 41 100
e 42 47
e 42 53
e 42 56
e 42 59
e 42 68
e 42 75
e 42 84
e 42 98
e 42 100
e 43 52
e 43 54
e 43 74
e 43 76
e 43 78
e 43 81
e 43 86
e 43 91
e 43 95
e 43 96
e 44 45
e 44 47
e 44 49
e 44 50
e 44 51
e 44 53
e 44 54
e 44 59
e 44 60
e 44 68
e 44 73
e 44 82
e 44 87
e 44 88
e 44 93
e 44 95
e 44 96
e 44 97
e 44 98
e 44 100
e 45 47
e 45 52
e 45 56
e 45 60
e 45 64
e 45 71
e 45 73
e 45 94
e 45 99
e 46 48
e 46 49
e 46 55
e 46 59
e 46 62
e 46 63
e 46 70
e 46 72
e 46 75
e 46 94
e 46 100
e 47 52
e 47 57
e 47 60
e 47 70
e 47 74
e 47 77
e 47 81
e 47 89
e 47 92
e 47 99
e 48 51
e 48 52
e 48 58
e 48 67
e 48 75
e 48 78
e 48 79
e 48 94
e 49 50
e 49 51
e 49 69
e 49 71
e 49 77
e 49 82
e 49 86
e 49 89
e 49 90
e 49 95
e 50 52
e 50 59
e 50 61
e 50 62
e 50 64
e 50 70
e 50 73
e 50 78
e 50 79
e 50 93
e 51 80
e 51 82
e 51 83
e 51 87
e 51 89
e 51 98
e 52 57
e 52 65
e 52 75
e 52 77
e 52 78
e 52 86
e 52 97
e 52 98
e 53 56
e 53 58
e 53 68
e 53 73
e 53 83
e 53 85
e 53 90
e 54 55
e 54 57
e 54 63
e 54 67
e 54 69
e 54 70
e 54 77
e 54 92
e 55 70
e 55 76
e 55 80
e 55 84
e 55 85
e 55 87
e 55 89
e 55 94
e 56 59
e 56 61
e 56 65
e 56 68
e 56 71
e 56 75
e 56 76
e 56 77
e 56 78
e 56 80
e 57 63
e 57 71
e 57 74
e 57 76
e 57 79
e 57 82
e 57 83
e 57 84
e 57 86
e 58 61
e 58 62
e 58 63
e 58 71
e 58 72
e 58 73
e 58 74
e 58 77
e 58 80
e 58 81
e 58 89
e 58 91
e 58 99
e 59 66
e 59 71
e 59 72
e 59 81
e 59 82
e 59 83
e 59 84
e 59 93
e 60 66
e 60 68
e 60 76
e 60 84
e 60 86
e 60 89
e 60 93
e 60 97
e 61 62
e 61 78
e 61 80
e 61 87
e 61 90
e 61 100
e 62 68
e 62 76
e 62 84
e 62 92
e 62 93
e 62 94
e 62 96
e 63 65
e 63 66
e 63 67
e 63 70
e 63 71
e 63 73
e 63 80
e 63 81
e 63 93
e 63 94
e 64 65
e 64 66
e 65 66
e 65 78
e 65 84
e 65 93
e 66 70
e 66 73
e 66 76
e 66 99
e 67 74
e 67 76
e 67 92
e 68 73
e 68 99
e 69 71
e 69 74
e 69 84
e 70 85
e 70 97
e 71 72
e 71 78
e 71 87
e 71 89
e 71 92
e 71 94
e 71 97
e 72 85
e 72 90
e 72 92
e 73 74
e 73 75
e 73 80
e 73 92
e 73 93
e 73 95
e 74 82
e 74 87
e 75 77
e 75 82
e 75 84
e 75 87
e 75 88
e 75 90
e 75 91
e 75 98
e 76 77
e 76 80
e 76 87
e 76 93
e 76 99
e 77 79
e 77 85
e 77 86
e 79 81
e 79 92
e 79 95
e 80 90
e 81 88
e 81 90
e 81 98
e 82 98
e 83 90
e 84 85
e 84 89
e 84 94
e 85 90
e 85 92
e 85 97
e 86 91
e 86 92
e 86 97
e 86 98
e 87 96
e 88 92
e 88 100
e 89 91
e 89 96
e 90 94
e 90 100
e 92 97
e 93 100
e 94 99
